0 0 2 0
1 0 1 0
0 1 0 1
2 0 2 1
3 0 1 8
3 1 0 13
1 1 2 8
4 0 2 13
2 1 3 6
5 0 1 13
1 2 4 13
2 2 5 10
4 1 1 22
0 2 1 25
2 3 0 18
5 1 3 16
3 2 2 22
2 4 1 31
5 2 5 19
5 3 0 28
3 3 3 27
0 3 3 31
1 3 5 28
0 4 5 38
4 2 4 25
3 4 4 30
1 4 0 38
2 5 4 38
4 3 5 41
1 5 3 48
5 4 4 45
5 5 2 49
4 4 0 48
4 5 3 52
0 5 4 49
3 5 5 45
